Translating instance to solver...

Set parameter TimeLimit to value 28800
Gurobi Optimizer version 11.0.2 build v11.0.2rc0 (linux64 - "Ubuntu 22.04.4 LTS")

CPU model: Intel(R) Xeon(R) Gold 5120 CPU @ 2.20GHz, instruction set [SSE2|AVX|AVX2|AVX512]
Thread count: 28 physical cores, 56 logical processors, using up to 28 threads

Academic license 2463511 - for non-commercial use only - registered to lu___@cefet-rj.br
Optimize a model with 61055 rows, 30653 columns and 140553 nonzeros
Model fingerprint: 0x2698c209
Variable types: 1 continuous, 30652 integer (30600 binary)
Coefficient statistics:
  Matrix range     [1e+00, 1e+05]
  Objective range  [3e-01, 8e-01]
  Bounds range     [1e+00, 5e+01]
  RHS range        [1e+00, 9e+01]
Presolve removed 50892 rows and 26438 columns
Presolve time: 0.82s
Presolved: 10163 rows, 4215 columns, 30673 nonzeros
Variable types: 0 continuous, 4215 integer (4164 binary)

Root relaxation: objective 2.013099e+00, 1905 iterations, 0.07 seconds (0.09 work units)

    Nodes    |    Current Node    |     Objective Bounds      |     Work
 Expl Unexpl |  Obj  Depth IntInf | Incumbent    BestBd   Gap | It/Node Time

     0     0    2.01310    0   81          -    2.01310      -     -    1s
H    0     0                       5.5971280    2.01310  64.0%     -    1s
     0     0    2.03122    0  152    5.59713    2.03122  63.7%     -    1s
H    0     0                       2.5735640    2.03599  20.9%     -    1s
     0     0    2.03726    0  145    2.57356    2.03726  20.8%     -    1s
     0     0    2.05074    0  258    2.57356    2.05074  20.3%     -    2s
     0     0    2.05239    0  169    2.57356    2.05239  20.3%     -    2s
     0     0    2.06312    0  252    2.57356    2.06312  19.8%     -    2s
     0     0    2.06513    0  298    2.57356    2.06513  19.8%     -    2s
     0     0    2.07231    0  250    2.57356    2.07231  19.5%     -    2s
     0     0    2.10222    0  307    2.57356    2.10222  18.3%     -    2s
     0     0    2.12356    0  383    2.57356    2.12356  17.5%     -    3s
     0     0    2.12892    0  369    2.57356    2.12892  17.3%     -    3s
     0     0    2.14962    0  564    2.57356    2.14962  16.5%     -    3s
     0     0    2.14962    0  524    2.57356    2.14962  16.5%     -    3s
     0     0    2.14962    0   74    2.57356    2.14962  16.5%     -    4s
     0     0    2.14962    0  215    2.57356    2.14962  16.5%     -    4s
     0     0    2.14962    0  404    2.57356    2.14962  16.5%     -    5s
     0     0    2.14962    0  472    2.57356    2.14962  16.5%     -    5s
     0     0    2.14962    0  494    2.57356    2.14962  16.5%     -    5s
     0     0    2.14962    0  452    2.57356    2.14962  16.5%     -    5s
     0     0    2.15656    0  558    2.57356    2.15656  16.2%     -    6s
     0     0    2.15936    0  552    2.57356    2.15936  16.1%     -    6s
     0     0    2.16533    0  660    2.57356    2.16533  15.9%     -    6s
     0     0    2.17283    0  739    2.57356    2.17283  15.6%     -    6s
     0     0    2.17457    0  601    2.57356    2.17457  15.5%     -    6s
     0     0    2.18938    0  711    2.57356    2.18938  14.9%     -    7s
     0     0    2.18973    0  682    2.57356    2.18973  14.9%     -    7s
     0     2    2.18973    0  682    2.57356    2.18973  14.9%     -    8s
    59    67    2.18973    6  264    2.57356    2.18973  14.9%   470   10s
   804   384    2.42134   22  146    2.57356    2.18973  14.9%   158   15s
  3802    34    2.37934   15  409    2.57356    2.30171  10.6%   112   20s

Cutting planes:
  Learned: 232
  Gomory: 1
  Cover: 1
  Implied bound: 239
  Clique: 1
  MIR: 30
  Zero half: 5
  RLT: 199
  Relax-and-lift: 18
  BQP: 255

Explored 4147 nodes (513905 simplex iterations) in 21.92 seconds (19.53 work units)
Thread count was 28 (of 56 available processors)

Solution count 2: 2.57356 5.59713 

Optimal solution found (tolerance 1.00e-04)
Best objective 2.573564000000e+00, best bound 2.573564000000e+00, gap 0.0000%

Solver Wallclock Time (for this epsilon): 21.92196488380432 s
Python wallclock Time (for this epsilon): 26.170412302017212 s


Total Elapsed Time (since program call): 319.3487160205841 s

Results:

I = 2.5735639999999997 mA
C = 90.0 points
C ~= 36.0 km^2

Minimum Epsilon for this instance = 10
Maximum Epsilon for this instance = 100

Current Epsilon = 90


Preprocessing Time (for this epsilon): 0.008472204208374023 s


Updated solution vectors:
sol_I = [-0.9176730000000001,-1.223564,-1.367673,-1.367673,-1.367673,-1.673564,-1.817673,-2.123564,-2.5735639999999997]
sol_C = [12.0,21.0,41.0,40.0,53.0,61.0,70.0,80.0,90.0]
sol_eps = [10,20,30,40,50,60,70,80,90]
sol_gap = [0.0,0.0,0.0,3.0374999981930273e-07,1.9124999717234914e-07,0.0,0.0,0.0,0.0]
